\ENCODING=ISO-8859-1
\Problem name: ilog.cplex

Maximize
 obj: 903 x(0)#0 + 626 x(1)#1 + 683 x(2)#2 + 820 x(3)#3 + 865 x(4)#4
      + 812 x(5)#5 + 785 x(6)#6 + 751 x(7)#7 + 1028 x(8)#8 + 617 x(9)#9
      + 784 x(10)#10 + 737 x(11)#11 + 1060 x(12)#12 + 934 x(13)#13
      + 586 x(14)#14 + 553 x(15)#15 + 954 x(16)#16 + 826 x(17)#17
      + 776 x(18)#18 + 814 x(19)#19 + 865 x(20)#20 + 455 x(21)#21
      + 381 x(22)#22 + 596 x(23)#23 + 366 x(24)#24 + 910 x(25)#25
      + 926 x(26)#26 + 793 x(27)#27 + 956 x(28)#28 + 1055 x(29)#29
      + 679 x(30)#30 + 825 x(31)#31 + 478 x(32)#32 + 835 x(33)#33
      + 591 x(34)#34 + 892 x(35)#35 + 726 x(36)#36 + 846 x(37)#37
      + 802 x(38)#38 + 932 x(39)#39 + 894 x(40)#40 + 1001 x(41)#41
      + 919 x(42)#42 + 759 x(43)#43 + 668 x(44)#44 + 885 x(45)#45
      + 380 x(46)#46 + 664 x(47)#47 + 504 x(48)#48 + 611 x(49)#49
      + 1091 x(50)#50 + 439 x(51)#51 + 495 x(52)#52 + 504 x(53)#53
      + 1034 x(54)#54 + 967 x(55)#55 + 929 x(56)#56 + 653 x(57)#57
      + 519 x(58)#58 + 785 x(59)#59 + 511 x(60)#60 + 882 x(61)#61
      + 897 x(62)#62 + 348 x(63)#63 + 607 x(64)#64 + 744 x(65)#65
      + 404 x(66)#66 + 898 x(67)#67 + 821 x(68)#68 + 704 x(69)#69
      + 549 x(70)#70 + 522 x(71)#71 + 831 x(72)#72 + 895 x(73)#73
      + 959 x(74)#74 + 631 x(75)#75 + 805 x(76)#76 + 955 x(77)#77
      + 676 x(78)#78 + 661 x(79)#79 + 813 x(80)#80 + 380 x(81)#81
      + 817 x(82)#82 + 829 x(83)#83 + 889 x(84)#84 + 601 x(85)#85
      + 700 x(86)#86 + 695 x(87)#87 + 1046 x(88)#88 + 954 x(89)#89
      + 675 x(90)#90 + 846 x(91)#91 + 697 x(92)#92 + 190 x(93)#93
      + 1043 x(94)#94 + 1080 x(95)#95 + 313 x(96)#96 + 530 x(97)#97
      + 508 x(98)#98 + 869 x(99)#99 + 468 x(100)#100 + 633 x(101)#101
      + 825 x(102)#102 + 618 x(103)#103 + 598 x(104)#104 + 575 x(105)#105
      + 870 x(106)#106 + 572 x(107)#107 + 1091 x(108)#108 + 537 x(109)#109
      + 860 x(110)#110 + 969 x(111)#111 + 525 x(112)#112 + 848 x(113)#113
      + 661 x(114)#114 + 1051 x(115)#115 + 770 x(116)#116 + 784 x(117)#117
      + 708 x(118)#118 + 925 x(119)#119 + 656 x(120)#120 + 971 x(121)#121
      + 587 x(122)#122 + 691 x(123)#123 + 648 x(124)#124 + 550 x(125)#125
      + 749 x(126)#126 + 1010 x(127)#127 + 1088 x(128)#128 + 1012 x(129)#129
      + 464 x(130)#130 + 1013 x(131)#131 + 878 x(132)#132 + 499 x(133)#133
      + 900 x(134)#134 + 742 x(135)#135 + 990 x(136)#136 + 648 x(137)#137
      + 764 x(138)#138 + 512 x(139)#139 + 699 x(140)#140 + 1022 x(141)#141
      + 800 x(142)#142 + 921 x(143)#143 + 598 x(144)#144 + 843 x(145)#145
      + 1117 x(146)#146 + 739 x(147)#147 + 599 x(148)#148 + 1055 x(149)#149
      + 672 x(150)#150 + 689 x(151)#151 + 503 x(152)#152 + 690 x(153)#153
      + 653 x(154)#154 + 1166 x(155)#155 + 1004 x(156)#156 + 994 x(157)#157
      + 827 x(158)#158 + 589 x(159)#159 + 410 x(160)#160 + 394 x(161)#161
      + 486 x(162)#162 + 725 x(163)#163 + 515 x(164)#164 + 570 x(165)#165
      + 686 x(166)#166 + 977 x(167)#167 + 619 x(168)#168 + 520 x(169)#169
      + 818 x(170)#170 + 819 x(171)#171 + 1184 x(172)#172 + 673 x(173)#173
      + 577 x(174)#174 + 632 x(175)#175 + 784 x(176)#176 + 776 x(177)#177
      + 392 x(178)#178 + 951 x(179)#179 + 928 x(180)#180 + 629 x(181)#181
      + 659 x(182)#182 + 711 x(183)#183 + 571 x(184)#184 + 488 x(185)#185
      + 888 x(186)#186 + 708 x(187)#187 + 511 x(188)#188 + 1197 x(189)#189
      + 511 x(190)#190 + 688 x(191)#191 + 624 x(192)#192 + 670 x(193)#193
      + 832 x(194)#194 + 972 x(195)#195 + 953 x(196)#196 + 701 x(197)#197
      + 711 x(198)#198 + 727 x(199)#199 + 764 x(200)#200 + 729 x(201)#201
      + 518 x(202)#202 + 504 x(203)#203 + 670 x(204)#204 + 492 x(205)#205
      + 782 x(206)#206 + 962 x(207)#207 + 783 x(208)#208 + 864 x(209)#209
      + 623 x(210)#210 + 641 x(211)#211 + 745 x(212)#212 + 807 x(213)#213
      + 780 x(214)#214 + 897 x(215)#215 + 656 x(216)#216 + 711 x(217)#217
      + 581 x(218)#218 + 629 x(219)#219 + 734 x(220)#220 + 501 x(221)#221
      + 890 x(222)#222 + 1131 x(223)#223 + 902 x(224)#224 + 837 x(225)#225
      + 479 x(226)#226 + 945 x(227)#227 + 879 x(228)#228 + 501 x(229)#229
      + 842 x(230)#230 + 501 x(231)#231 + 708 x(232)#232 + 494 x(233)#233
      + 997 x(234)#234 + 935 x(235)#235 + 707 x(236)#236 + 432 x(237)#237
      + 818 x(238)#238 + 843 x(239)#239 + 410 x(240)#240 + 761 x(241)#241
      + 1061 x(242)#242 + 982 x(243)#243 + 696 x(244)#244 + 515 x(245)#245
      + 452 x(246)#246 + 899 x(247)#247 + 340 x(248)#248 + 735 x(249)#249
Subject To
 c1: 634 x(0)#0 + 540 x(1)#1 + 793 x(2)#2 + 252 x(3)#3 + 676 x(4)#4
     + 566 x(5)#5 + 739 x(6)#6 + 762 x(7)#7 + 371 x(8)#8 + 961 x(9)#9
     + 865 x(10)#10 + 525 x(11)#11 + 324 x(12)#12 + 968 x(13)#13 + 461 x(14)#14
     + 321 x(15)#15 + 837 x(16)#16 + 664 x(17)#17 + 611 x(18)#18 + 433 x(19)#19
     + 208 x(20)#20 + 371 x(21)#21 + 190 x(22)#22 + 415 x(23)#23 + 159 x(24)#24
     + 886 x(25)#25 + 253 x(26)#26 + 336 x(27)#27 + 996 x(28)#28 + 857 x(29)#29
     + 410 x(30)#30 + 65 x(31)#31 + 38 x(32)#32 + 705 x(33)#33 + 736 x(34)#34
     + 972 x(35)#35 + 155 x(36)#36 + 640 x(37)#37 + 954 x(38)#38 + 217 x(39)#39
     + 728 x(40)#40 + 559 x(41)#41 + 467 x(42)#42 + 437 x(43)#43 + 385 x(44)#44
     + 992 x(45)#45 + 489 x(46)#46 + 731 x(47)#47 + 545 x(48)#48 + 350 x(49)#49
     + 945 x(50)#50 + 61 x(51)#51 + 193 x(52)#52 + 81 x(53)#53 + 529 x(54)#54
     + 760 x(55)#55 + 584 x(56)#56 + 396 x(57)#57 + 376 x(58)#58 + 338 x(59)#59
     + 670 x(60)#60 + 629 x(61)#61 + 958 x(62)#62 + 173 x(63)#63 + 641 x(64)#64
     + 646 x(65)#65 + 114 x(66)#66 + 849 x(67)#67 + 804 x(68)#68 + 88 x(69)#69
     + 79 x(70)#70 + 723 x(71)#71 + 739 x(72)#72 + 515 x(73)#73 + 854 x(74)#74
     + 152 x(75)#75 + 62 x(76)#76 + 117 x(77)#77 + 186 x(78)#78 + 903 x(79)#79
     + 249 x(80)#80 + 368 x(81)#81 + 574 x(82)#82 + 425 x(83)#83 + 656 x(84)#84
     + 330 x(85)#85 + 950 x(86)#86 + 385 x(87)#87 + 602 x(88)#88 + 91 x(89)#89
     + 72 x(90)#90 + 28 x(91)#91 + 789 x(92)#92 + 41 x(93)#93 + 801 x(94)#94
     + 295 x(95)#95 + 147 x(96)#96 + 459 x(97)#97 + 791 x(98)#98 + 251 x(99)#99
     + 31 x(100)#100 + 127 x(101)#101 + 890 x(102)#102 + 689 x(103)#103
     + 202 x(104)#104 + 812 x(105)#105 + 321 x(106)#106 + 757 x(107)#107
     + 916 x(108)#108 + 350 x(109)#109 + 46 x(110)#110 + 797 x(111)#111
     + 491 x(112)#112 + 397 x(113)#113 + 265 x(114)#114 + 534 x(115)#115
     + 45 x(116)#116 + 957 x(117)#117 + 709 x(118)#118 + 682 x(119)#119
     + 469 x(120)#120 + 924 x(121)#121 + 460 x(122)#122 + 212 x(123)#123
     + 103 x(124)#124 + 341 x(125)#125 + 532 x(126)#126 + 759 x(127)#127
     + 868 x(128)#128 + 407 x(129)#129 + 742 x(130)#130 + 593 x(131)#131
     + 932 x(132)#132 + 220 x(133)#133 + 658 x(134)#134 + 420 x(135)#135
     + 295 x(136)#136 + 66 x(137)#137 + 45 x(138)#138 + 14 x(139)#139
     + 657 x(140)#140 + 948 x(141)#141 + 293 x(142)#142 + 573 x(143)#143
     + 585 x(144)#144 + 286 x(145)#145 + 506 x(146)#146 + 372 x(147)#147
     + 336 x(148)#148 + 818 x(149)#149 + 325 x(150)#150 + 636 x(151)#151
     + 514 x(152)#152 + 478 x(153)#153 + 542 x(154)#154 + 907 x(155)#155
     + 822 x(156)#156 + 794 x(157)#157 + 774 x(158)#158 + 181 x(159)#159
     + 189 x(160)#160 + 154 x(161)#161 + 128 x(162)#162 + 501 x(163)#163
     + 60 x(164)#164 + 152 x(165)#165 + 385 x(166)#166 + 346 x(167)#167
     + 497 x(168)#168 + 366 x(169)#169 + 849 x(170)#170 + 962 x(171)#171
     + 991 x(172)#172 + 718 x(173)#173 + 185 x(174)#174 + 911 x(175)#175
     + 450 x(176)#176 + 282 x(177)#177 + 59 x(178)#178 + 971 x(179)#179
     + 890 x(180)#180 + 858 x(181)#181 + 119 x(182)#182 + 821 x(183)#183
     + 135 x(184)#184 + 41 x(185)#185 + 427 x(186)#186 + 641 x(187)#187
     + 609 x(188)#188 + 983 x(189)#189 + 416 x(190)#190 + 609 x(191)#191
     + 28 x(192)#192 + 301 x(193)#193 + 917 x(194)#194 + 806 x(195)#195
     + 885 x(196)#196 + 954 x(197)#197 + 636 x(198)#198 + 188 x(199)#199
     + 128 x(200)#200 + 663 x(201)#201 + 207 x(202)#202 + 80 x(203)#203
     + 309 x(204)#204 + 484 x(205)#205 + 472 x(206)#206 + 619 x(207)#207
     + 310 x(208)#208 + 569 x(209)#209 + 170 x(210)#210 + 731 x(211)#211
     + 593 x(212)#212 + 733 x(213)#213 + 835 x(214)#214 + 406 x(215)#215
     + 270 x(216)#216 + 534 x(217)#217 + 414 x(218)#218 + 382 x(219)#219
     + 816 x(220)#220 + 45 x(221)#221 + 842 x(222)#222 + 379 x(223)#223
     + 147 x(224)#224 + 615 x(225)#225 + 29 x(226)#226 + 315 x(227)#227
     + 873 x(228)#228 + 210 x(229)#229 + 942 x(230)#230 + 330 x(231)#231
     + 276 x(232)#232 + 614 x(233)#233 + 165 x(234)#234 + 593 x(235)#235
     + 923 x(236)#236 + 159 x(237)#237 + 171 x(238)#238 + 864 x(239)#239
     + 462 x(240)#240 + 732 x(241)#241 + 664 x(242)#242 + 868 x(243)#243
     + 183 x(244)#244 + 721 x(245)#245 + 784 x(246)#246 + 687 x(247)#247
     + 230 x(248)#248 + 813 x(249)#249 <= 93918
 c2: 141 x(0)#0 + 74 x(1)#1 + 251 x(2)#2 + 363 x(3)#3 + 932 x(4)#4 + 722 x(5)#5
     + 145 x(6)#6 + 728 x(7)#7 + 495 x(8)#8 + 349 x(9)#9 + 871 x(10)#10
     + 593 x(11)#11 + 861 x(12)#12 + 212 x(13)#13 + 174 x(14)#14 + 506 x(15)#15
     + 955 x(16)#16 + 702 x(17)#17 + 602 x(18)#18 + 902 x(19)#19 + 793 x(20)#20
     + 176 x(21)#21 + 272 x(22)#22 + 754 x(23)#23 + 245 x(24)#24 + 38 x(25)#25
     + 156 x(26)#26 + 816 x(27)#27 + 775 x(28)#28 + 784 x(29)#29 + 863 x(30)#30
     + 365 x(31)#31 + 897 x(32)#32 + 941 x(33)#33 + 410 x(34)#34 + 641 x(35)#35
     + 597 x(36)#36 + 928 x(37)#37 + 926 x(38)#38 + 745 x(39)#39 + 692 x(40)#40
     + 669 x(41)#41 + 719 x(42)#42 + 486 x(43)#43 + 682 x(44)#44 + 634 x(45)#45
     + 53 x(46)#46 + 564 x(47)#47 + 691 x(48)#48 + 581 x(49)#49 + 568 x(50)#50
     + 194 x(51)#51 + 883 x(52)#52 + 138 x(53)#53 + 182 x(54)#54 + 556 x(55)#55
     + 264 x(56)#56 + 873 x(57)#57 + 694 x(58)#58 + 866 x(59)#59 + 112 x(60)#60
     + 945 x(61)#61 + 321 x(62)#62 + 614 x(63)#63 + 82 x(64)#64 + 342 x(65)#65
     + 478 x(66)#66 + 600 x(67)#67 + 478 x(68)#68 + 948 x(69)#69 + 698 x(70)#70
     + 402 x(71)#71 + 947 x(72)#72 + 777 x(73)#73 + 946 x(74)#74 + 130 x(75)#75
     + 493 x(76)#76 + 524 x(77)#77 + 520 x(78)#78 + 643 x(79)#79 + 827 x(80)#80
     + 615 x(81)#81 + 503 x(82)#82 + 762 x(83)#83 + 713 x(84)#84 + 997 x(85)#85
     + 935 x(86)#86 + 225 x(87)#87 + 722 x(88)#88 + 981 x(89)#89 + 902 x(90)#90
     + 198 x(91)#91 + 131 x(92)#92 + 241 x(93)#93 + 365 x(94)#94 + 921 x(95)#95
     + 743 x(96)#96 + 223 x(97)#97 + 326 x(98)#98 + 280 x(99)#99
     + 15 x(100)#100 + 789 x(101)#101 + 742 x(102)#102 + 602 x(103)#103
     + 934 x(104)#104 + 154 x(105)#105 + 767 x(106)#106 + 245 x(107)#107
     + 341 x(108)#108 + 401 x(109)#109 + 722 x(110)#110 + 839 x(111)#111
     + 235 x(112)#112 + 701 x(113)#113 + 238 x(114)#114 + 423 x(115)#115
     + 354 x(116)#116 + 59 x(117)#117 + 115 x(118)#118 + 482 x(119)#119
     + 962 x(120)#120 + 713 x(121)#121 + 341 x(122)#122 + 229 x(123)#123
     + 895 x(124)#124 + 642 x(125)#125 + 58 x(126)#126 + 277 x(127)#127
     + 577 x(128)#128 + 895 x(129)#129 + 818 x(130)#130 + 967 x(131)#131
     + 607 x(132)#132 + 53 x(133)#133 + 713 x(134)#134 + 185 x(135)#135
     + 667 x(136)#136 + 488 x(137)#137 + 317 x(138)#138 + 637 x(139)#139
     + 843 x(140)#140 + 611 x(141)#141 + 872 x(142)#142 + 809 x(143)#143
     + 669 x(144)#144 + 173 x(145)#145 + 829 x(146)#146 + 472 x(147)#147
     + 71 x(148)#148 + 754 x(149)#149 + 146 x(150)#150 + 750 x(151)#151
     + 746 x(152)#152 + 863 x(153)#153 + 26 x(154)#154 + 621 x(155)#155
     + 501 x(156)#156 + 635 x(157)#157 + 303 x(158)#158 + 75 x(159)#159
     + 624 x(160)#160 + 485 x(161)#161 + 202 x(162)#162 + 40 x(163)#163
     + 455 x(164)#164 + 466 x(165)#165 + 267 x(166)#166 + 392 x(167)#167
     + 882 x(168)#168 + 212 x(169)#169 + 726 x(170)#170 + 132 x(171)#171
     + 807 x(172)#172 + 625 x(173)#173 + 27 x(174)#174 + 449 x(175)#175
     + 759 x(176)#176 + 112 x(177)#177 + 788 x(178)#178 + 61 x(179)#179
     + 696 x(180)#180 + 339 x(181)#181 + 453 x(182)#182 + 85 x(183)#183
     + 944 x(184)#184 + 501 x(185)#185 + 661 x(186)#186 + 361 x(187)#187
     + 772 x(188)#188 + 907 x(189)#189 + 774 x(190)#190 + 178 x(191)#191
     + 340 x(192)#192 + 795 x(193)#193 + 718 x(194)#194 + 352 x(195)#195
     + 487 x(196)#196 + 117 x(197)#197 + 900 x(198)#198 + 94 x(199)#199
     + 893 x(200)#200 + 500 x(201)#201 + 41 x(202)#202 + 106 x(203)#203
     + 840 x(204)#204 + 506 x(205)#205 + 548 x(206)#206 + 285 x(207)#207
     + 249 x(208)#208 + 342 x(209)#209 + 316 x(210)#210 + 823 x(211)#211
     + 789 x(212)#212 + 199 x(213)#213 + 602 x(214)#214 + 712 x(215)#215
     + 844 x(216)#216 + 373 x(217)#217 + 638 x(218)#218 + 215 x(219)#219
     + 333 x(220)#220 + 436 x(221)#221 + 751 x(222)#222 + 546 x(223)#223
     + 828 x(224)#224 + 367 x(225)#225 + 527 x(226)#226 + 850 x(227)#227
     + 894 x(228)#228 + 151 x(229)#229 + 948 x(230)#230 + 636 x(231)#231
     + 890 x(232)#232 + 201 x(233)#233 + 767 x(234)#234 + 950 x(235)#235
     + 47 x(236)#236 + 680 x(237)#237 + 634 x(238)#238 + 784 x(239)#239
     + 301 x(240)#240 + 127 x(241)#241 + 299 x(242)#242 + 478 x(243)#243
     + 941 x(244)#244 + 308 x(245)#245 + 467 x(246)#246 + 559 x(247)#247
     + 312 x(248)#248 + 501 x(249)#249 <= 99440
 c3: 574 x(0)#0 + 967 x(1)#1 + 536 x(2)#2 + 556 x(3)#3 + 352 x(4)#4
     + 612 x(5)#5 + 768 x(6)#6 + 491 x(7)#7 + 476 x(8)#8 + 259 x(9)#9
     + 901 x(10)#10 + 374 x(11)#11 + 819 x(12)#12 + 225 x(13)#13 + 713 x(14)#14
     + 442 x(15)#15 + 326 x(16)#16 + 376 x(17)#17 + 796 x(18)#18 + 161 x(19)#19
     + 21 x(20)#20 + 39 x(21)#21 + 185 x(22)#22 + 243 x(23)#23 + 547 x(24)#24
     + 993 x(25)#25 + 705 x(26)#26 + 235 x(27)#27 + 687 x(28)#28 + 184 x(29)#29
     + 162 x(30)#30 + 815 x(31)#31 + 236 x(32)#32 + 722 x(33)#33 + 229 x(34)#34
     + 733 x(35)#35 + 235 x(36)#36 + 672 x(37)#37 + 258 x(38)#38 + 893 x(39)#39
     + 637 x(40)#40 + 325 x(41)#41 + 460 x(42)#42 + 419 x(43)#43 + 458 x(44)#44
     + 773 x(45)#45 + 84 x(46)#46 + 329 x(47)#47 + 136 x(48)#48 + 345 x(49)#49
     + 718 x(50)#50 + 327 x(51)#51 + 53 x(52)#52 + 85 x(53)#53 + 822 x(54)#54
     + 674 x(55)#55 + 859 x(56)#56 + 656 x(57)#57 + 969 x(58)#58 + 908 x(59)#59
     + 47 x(60)#60 + 782 x(61)#61 + 19 x(62)#62 + 57 x(63)#63 + 615 x(64)#64
     + 831 x(65)#65 + 59 x(66)#66 + 485 x(67)#67 + 358 x(68)#68 + 493 x(69)#69
     + 272 x(70)#70 + 47 x(71)#71 + 538 x(72)#72 + 344 x(73)#73 + 786 x(74)#74
     + 974 x(75)#75 + 416 x(76)#76 + 825 x(77)#77 + 369 x(78)#78 + 637 x(79)#79
     + 996 x(80)#80 + 137 x(81)#81 + 174 x(82)#82 + 144 x(83)#83 + 610 x(84)#84
     + 119 x(85)#85 + 11 x(86)#86 + 611 x(87)#87 + 723 x(88)#88 + 771 x(89)#89
     + 276 x(90)#90 + 615 x(91)#91 + 97 x(92)#92 + 14 x(93)#93 + 458 x(94)#94
     + 876 x(95)#95 + 393 x(96)#96 + 502 x(97)#97 + 403 x(98)#98 + 230 x(99)#99
     + 827 x(100)#100 + 707 x(101)#101 + 203 x(102)#102 + 167 x(103)#103
     + 323 x(104)#104 + 394 x(105)#105 + 360 x(106)#106 + 159 x(107)#107
     + 13 x(108)#108 + 860 x(109)#109 + 817 x(110)#110 + 422 x(111)#111
     + 698 x(112)#112 + 582 x(113)#113 + 788 x(114)#114 + 173 x(115)#115
     + 413 x(116)#116 + 511 x(117)#117 + 898 x(118)#118 + 992 x(119)#119
     + 548 x(120)#120 + 964 x(121)#121 + 275 x(122)#122 + 468 x(123)#123
     + 231 x(124)#124 + 178 x(125)#125 + 400 x(126)#126 + 432 x(127)#127
     + 938 x(128)#128 + 424 x(129)#129 + 133 x(130)#130 + 974 x(131)#131
     + 978 x(132)#132 + 115 x(133)#133 + 250 x(134)#134 + 678 x(135)#135
     + 433 x(136)#136 + 342 x(137)#137 + 926 x(138)#138 + 614 x(139)#139
     + 481 x(140)#140 + 991 x(141)#141 + 251 x(142)#142 + 947 x(143)#143
     + 490 x(144)#144 + 763 x(145)#145 + 984 x(146)#146 + 870 x(147)#147
     + 21 x(148)#148 + 493 x(149)#149 + 576 x(150)#150 + 264 x(151)#151
     + 428 x(152)#152 + 104 x(153)#153 + 573 x(154)#154 + 475 x(155)#155
     + 679 x(156)#156 + 738 x(157)#157 + 413 x(158)#158 + 94 x(159)#159
     + 840 x(160)#160 + 69 x(161)#161 + 688 x(162)#162 + 318 x(163)#163
     + 521 x(164)#164 + 452 x(165)#165 + 567 x(166)#166 + 980 x(167)#167
     + 922 x(168)#168 + 370 x(169)#169 + 956 x(170)#170 + 179 x(171)#171
     + 517 x(172)#172 + 570 x(173)#173 + 216 x(174)#174 + 454 x(175)#175
     + 5 x(176)#176 + 77 x(177)#177 + 145 x(178)#178 + 516 x(179)#179
     + 994 x(180)#180 + 535 x(181)#181 + 952 x(182)#182 + 314 x(183)#183
     + 221 x(184)#184 + 617 x(185)#185 + 276 x(186)#186 + 468 x(187)#187
     + 443 x(188)#188 + 325 x(189)#189 + 408 x(190)#190 + 740 x(191)#191
     + 613 x(192)#192 + 763 x(193)#193 + 933 x(194)#194 + 686 x(195)#195
     + 474 x(196)#196 + 390 x(197)#197 + 416 x(198)#198 + 449 x(199)#199
     + 608 x(200)#200 + 678 x(201)#201 + 489 x(202)#202 + 446 x(203)#203
     + 959 x(204)#204 + 507 x(205)#205 + 832 x(206)#206 + 158 x(207)#207
     + 866 x(208)#208 + 710 x(209)#209 + 688 x(210)#210 + 445 x(211)#211
     + 572 x(212)#212 + 208 x(213)#213 + 880 x(214)#214 + 472 x(215)#215
     + 398 x(216)#216 + 247 x(217)#217 + 286 x(218)#218 + 871 x(219)#219
     + 899 x(220)#220 + 507 x(221)#221 + 251 x(222)#222 + 923 x(223)#223
     + 455 x(224)#224 + 317 x(225)#225 + 300 x(226)#226 + 166 x(227)#227
     + 691 x(228)#228 + 930 x(229)#229 + 405 x(230)#230 + 205 x(231)#231
     + 690 x(232)#232 + 482 x(233)#233 + 990 x(234)#234 + 903 x(235)#235
     + 953 x(236)#236 + 188 x(237)#237 + 867 x(238)#238 + 18 x(239)#239
     + 385 x(240)#240 + 630 x(241)#241 + 292 x(242)#242 + 426 x(243)#243
     + 691 x(244)#244 + 549 x(245)#245 + 561 x(246)#246 + 880 x(247)#247
     + 423 x(248)#248 + 984 x(249)#249 <= 94929
 c4: 468 x(0)#0 + 468 x(1)#1 + 957 x(2)#2 + 717 x(3)#3 + 379 x(4)#4
     + 475 x(5)#5 + 24 x(6)#6 + 320 x(7)#7 + 948 x(8)#8 + 902 x(9)#9
     + 566 x(10)#10 + 848 x(11)#11 + 95 x(12)#12 + 808 x(13)#13 + 361 x(14)#14
     + 88 x(15)#15 + 258 x(16)#16 + 165 x(17)#17 + 178 x(18)#18 + 933 x(19)#19
     + 736 x(20)#20 + 435 x(21)#21 + 330 x(22)#22 + 820 x(23)#23 + 598 x(24)#24
     + 283 x(25)#25 + 968 x(26)#26 + 233 x(27)#27 + 843 x(28)#28 + 820 x(29)#29
     + 681 x(30)#30 + 143 x(31)#31 + 253 x(32)#32 + 403 x(33)#33 + 603 x(34)#34
     + 91 x(35)#35 + 651 x(36)#36 + 899 x(37)#37 + 431 x(38)#38 + 455 x(39)#39
     + 838 x(40)#40 + 398 x(41)#41 + 562 x(42)#42 + 479 x(43)#43 + 854 x(44)#44
     + 98 x(45)#45 + 731 x(46)#46 + 45 x(47)#47 + 55 x(48)#48 + 138 x(49)#49
     + 690 x(50)#50 + 693 x(51)#51 + 432 x(52)#52 + 322 x(53)#53 + 389 x(54)#54
     + 352 x(55)#55 + 582 x(56)#56 + 199 x(57)#57 + 17 x(58)#58 + 329 x(59)#59
     + 917 x(60)#60 + 618 x(61)#61 + 546 x(62)#62 + 281 x(63)#63 + 498 x(64)#64
     + 179 x(65)#65 + 427 x(66)#66 + 163 x(67)#67 + 265 x(68)#68 + 749 x(69)#69
     + 477 x(70)#70 + 647 x(71)#71 + 122 x(72)#72 + 286 x(73)#73 + 752 x(74)#74
     + 399 x(75)#75 + 770 x(76)#76 + 587 x(77)#77 + 138 x(78)#78 + 227 x(79)#79
     + 170 x(80)#80 + 389 x(81)#81 + 81 x(82)#82 + 52 x(83)#83 + 666 x(84)#84
     + 797 x(85)#85 + 706 x(86)#86 + 547 x(87)#87 + 644 x(88)#88 + 952 x(89)#89
     + 296 x(90)#90 + 615 x(91)#91 + 928 x(92)#92 + 43 x(93)#93 + 780 x(94)#94
     + 817 x(95)#95 + 163 x(96)#96 + 126 x(97)#97 + 23 x(98)#98 + 639 x(99)#99
     + 606 x(100)#100 + 480 x(101)#101 + 648 x(102)#102 + 378 x(103)#103
     + 751 x(104)#104 + 254 x(105)#105 + 742 x(106)#106 + 817 x(107)#107
     + 970 x(108)#108 + 298 x(109)#109 + 300 x(110)#110 + 521 x(111)#111
     + 126 x(112)#112 + 309 x(113)#113 + 248 x(114)#114 + 835 x(115)#115
     + 728 x(116)#116 + 957 x(117)#117 + 882 x(118)#118 + 812 x(119)#119
     + 519 x(120)#120 + 677 x(121)#121 + 332 x(122)#122 + 731 x(123)#123
     + 828 x(124)#124 + 839 x(125)#125 + 366 x(126)#126 + 644 x(127)#127
     + 863 x(128)#128 + 930 x(129)#129 + 126 x(130)#130 + 391 x(131)#131
     + 402 x(132)#132 + 828 x(133)#133 + 122 x(134)#134 + 912 x(135)#135
     + 943 x(136)#136 + 117 x(137)#137 + 982 x(138)#138 + 340 x(139)#139
     + 536 x(140)#140 + 465 x(141)#141 + 467 x(142)#142 + 600 x(143)#143
     + 9 x(144)#144 + 884 x(145)#145 + 694 x(146)#146 + 730 x(147)#147
     + 784 x(148)#148 + 874 x(149)#149 + 204 x(150)#150 + 268 x(151)#151
     + 136 x(152)#152 + 638 x(153)#153 + 262 x(154)#154 + 788 x(155)#155
     + 520 x(156)#156 + 726 x(157)#157 + 744 x(158)#158 + 980 x(159)#159
     + 87 x(160)#160 + 409 x(161)#161 + 241 x(162)#162 + 922 x(163)#163
     + 28 x(164)#164 + 968 x(165)#165 + 66 x(166)#166 + 832 x(167)#167
     + 407 x(168)#168 + 285 x(169)#169 + 223 x(170)#170 + 281 x(171)#171
     + 657 x(172)#172 + 63 x(173)#173 + 271 x(174)#174 + 224 x(175)#175
     + 332 x(176)#176 + 456 x(177)#177 + 227 x(178)#178 + 823 x(179)#179
     + 650 x(180)#180 + 132 x(181)#181 + 880 x(182)#182 + 890 x(183)#183
     + 223 x(184)#184 + 154 x(185)#185 + 452 x(186)#186 + 530 x(187)#187
     + 253 x(188)#188 + 937 x(189)#189 + 42 x(190)#190 + 289 x(191)#191
     + 979 x(192)#192 + 433 x(193)#193 + 710 x(194)#194 + 209 x(195)#195
     + 509 x(196)#196 + 822 x(197)#197 + 32 x(198)#198 + 202 x(199)#199
     + 354 x(200)#200 + 293 x(201)#201 + 289 x(202)#202 + 583 x(203)#203
     + 640 x(204)#204 + 275 x(205)#205 + 798 x(206)#206 + 863 x(207)#207
     + 943 x(208)#208 + 498 x(209)#209 + 495 x(210)#210 + 677 x(211)#211
     + 792 x(212)#212 + 219 x(213)#213 + 110 x(214)#214 + 903 x(215)#215
     + 235 x(216)#216 + 907 x(217)#217 + 184 x(218)#218 + 102 x(219)#219
     + 155 x(220)#220 + 374 x(221)#221 + 309 x(222)#222 + 890 x(223)#223
     + 483 x(224)#224 + 771 x(225)#225 + 719 x(226)#226 + 91 x(227)#227
     + 445 x(228)#228 + 516 x(229)#229 + 796 x(230)#230 + 175 x(231)#231
     + 254 x(232)#232 + 500 x(233)#233 + 612 x(234)#234 + 126 x(235)#235
     + 203 x(236)#236 + 31 x(237)#237 + 362 x(238)#238 + 847 x(239)#239
     + 649 x(240)#240 + 771 x(241)#241 + 914 x(242)#242 + 713 x(243)#243
     + 784 x(244)#244 + 439 x(245)#245 + 14 x(246)#246 + 618 x(247)#247
     + 429 x(248)#248 + 472 x(249)#249 <= 92951
 c5: 736 x(0)#0 + 583 x(1)#1 + 2 x(2)#2 + 454 x(3)#3 + 583 x(4)#4 + 583 x(5)#5
     + 806 x(6)#6 + 16 x(7)#7 + 987 x(8)#8 + 344 x(9)#9 + 387 x(10)#10
     + 460 x(11)#11 + 823 x(12)#12 + 686 x(13)#13 + 844 x(14)#14 + 860 x(15)#15
     + 624 x(16)#16 + 423 x(17)#17 + 411 x(18)#18 + 465 x(19)#19 + 193 x(20)#20
     + 752 x(21)#21 + 524 x(22)#22 + 697 x(23)#23 + 276 x(24)#24 + 525 x(25)#25
     + 82 x(26)#26 + 232 x(27)#27 + 401 x(28)#28 + 595 x(29)#29 + 789 x(30)#30
     + 712 x(31)#31 + 766 x(32)#32 + 222 x(33)#33 + 681 x(34)#34 + 336 x(35)#35
     + 58 x(36)#36 + 489 x(37)#37 + 421 x(38)#38 + 118 x(39)#39 + 306 x(40)#40
     + 913 x(41)#41 + 232 x(42)#42 + 964 x(43)#43 + 799 x(44)#44 + 688 x(45)#45
     + 124 x(46)#46 + 219 x(47)#47 + 134 x(48)#48 + 922 x(49)#49 + 743 x(50)#50
     + 458 x(51)#51 + 213 x(52)#52 + 241 x(53)#53 + 901 x(54)#54 + 293 x(55)#55
     + 142 x(56)#56 + 409 x(57)#57 + 24 x(58)#58 + 86 x(59)#59 + 533 x(60)#60
     + 179 x(61)#61 + 794 x(62)#62 + 156 x(63)#63 + 466 x(64)#64 + 434 x(65)#65
     + 497 x(66)#66 + 86 x(67)#67 + 149 x(68)#68 + 743 x(69)#69 + 296 x(70)#70
     + 622 x(71)#71 + 76 x(72)#72 + 141 x(73)#73 + 524 x(74)#74 + 621 x(75)#75
     + 566 x(76)#76 + 684 x(77)#77 + 589 x(78)#78 + 483 x(79)#79 + 253 x(80)#80
     + 6 x(81)#81 + 560 x(82)#82 + 867 x(83)#83 + 565 x(84)#84 + 690 x(85)#85
     + 151 x(86)#86 + 631 x(87)#87 + 215 x(88)#88 + 524 x(89)#89 + 128 x(90)#90
     + 929 x(91)#91 + 132 x(92)#92 + 265 x(93)#93 + 958 x(94)#94 + 621 x(95)#95
     + 98 x(96)#96 + 500 x(97)#97 + 865 x(98)#98 + 815 x(99)#99
     + 193 x(100)#100 + 802 x(101)#101 + 126 x(102)#102 + 200 x(103)#103
     + 234 x(104)#104 + 773 x(105)#105 + 918 x(106)#106 + 232 x(107)#107
     + 955 x(108)#108 + 730 x(109)#109 + 1000 x(110)#110 + 682 x(111)#111
     + 165 x(112)#112 + 923 x(113)#113 + 102 x(114)#114 + 986 x(115)#115
     + 314 x(116)#116 + 332 x(117)#117 + 368 x(118)#118 + 679 x(119)#119
     + 199 x(120)#120 + 734 x(121)#121 + 955 x(122)#122 + 665 x(123)#123
     + 838 x(124)#124 + 70 x(125)#125 + 286 x(126)#126 + 817 x(127)#127
     + 768 x(128)#128 + 171 x(129)#129 + 82 x(130)#130 + 843 x(131)#131
     + 748 x(132)#132 + 137 x(133)#133 + 408 x(134)#134 + 348 x(135)#135
     + 554 x(136)#136 + 24 x(137)#137 + 487 x(138)#138 + 571 x(139)#139
     + 182 x(140)#140 + 131 x(141)#141 + 612 x(142)#142 + 441 x(143)#143
     + 358 x(144)#144 + 626 x(145)#145 + 721 x(146)#146 + 160 x(147)#147
     + 978 x(148)#148 + 415 x(149)#149 + 145 x(150)#150 + 997 x(151)#151
     + 406 x(152)#152 + 536 x(153)#153 + 784 x(154)#154 + 941 x(155)#155
     + 745 x(156)#156 + 289 x(157)#157 + 53 x(158)#158 + 49 x(159)#159
     + 114 x(160)#160 + 599 x(161)#161 + 324 x(162)#162 + 697 x(163)#163
     + 64 x(164)#164 + 773 x(165)#165 + 133 x(166)#166 + 690 x(167)#167
     + 350 x(168)#168 + 974 x(169)#169 + 647 x(170)#170 + 623 x(171)#171
     + 456 x(172)#172 + 279 x(173)#173 + 715 x(174)#174 + 976 x(175)#175
     + 928 x(176)#176 + 466 x(177)#177 + 416 x(178)#178 + 637 x(179)#179
     + 767 x(180)#180 + 969 x(181)#181 + 105 x(182)#182 + 737 x(183)#183
     + 685 x(184)#184 + 593 x(185)#185 + 472 x(186)#186 + 151 x(187)#187
     + 174 x(188)#188 + 707 x(189)#189 + 25 x(190)#190 + 213 x(191)#191
     + 154 x(192)#192 + 337 x(193)#193 + 183 x(194)#194 + 651 x(195)#195
     + 539 x(196)#196 + 748 x(197)#197 + 791 x(198)#198 + 906 x(199)#199
     + 541 x(200)#200 + 872 x(201)#201 + 230 x(202)#202 + 652 x(203)#203
     + 439 x(204)#204 + 580 x(205)#205 + 323 x(206)#206 + 631 x(207)#207
     + 740 x(208)#208 + 195 x(209)#209 + 836 x(210)#210 + 177 x(211)#211
     + 344 x(212)#212 + 813 x(213)#213 + 905 x(214)#214 + 179 x(215)#215
     + 258 x(216)#216 + 42 x(217)#217 + 59 x(218)#218 + 589 x(219)#219
     + 830 x(220)#220 + 355 x(221)#221 + 771 x(222)#222 + 565 x(223)#223
     + 671 x(224)#224 + 104 x(225)#225 + 594 x(226)#226 + 951 x(227)#227
     + 103 x(228)#228 + 425 x(229)#229 + 668 x(230)#230 + 572 x(231)#231
     + 351 x(232)#232 + 134 x(233)#233 + 947 x(234)#234 + 826 x(235)#235
     + 949 x(236)#236 + 229 x(237)#237 + 484 x(238)#238 + 342 x(239)#239
     + 32 x(240)#240 + 270 x(241)#241 + 972 x(242)#242 + 516 x(243)#243
     + 829 x(244)#244 + 80 x(245)#245 + 393 x(246)#246 + 427 x(247)#247
     + 119 x(248)#248 + 578 x(249)#249 <= 91813
Bounds
 0 <= x(0)#0 <= 1
 0 <= x(1)#1 <= 1
 0 <= x(2)#2 <= 1
 0 <= x(3)#3 <= 1
 0 <= x(4)#4 <= 1
 0 <= x(5)#5 <= 1
 0 <= x(6)#6 <= 1
 0 <= x(7)#7 <= 1
 0 <= x(8)#8 <= 1
 0 <= x(9)#9 <= 1
 0 <= x(10)#10 <= 1
 0 <= x(11)#11 <= 1
 0 <= x(12)#12 <= 1
 0 <= x(13)#13 <= 1
 0 <= x(14)#14 <= 1
 0 <= x(15)#15 <= 1
 0 <= x(16)#16 <= 1
 0 <= x(17)#17 <= 1
 0 <= x(18)#18 <= 1
 0 <= x(19)#19 <= 1
 0 <= x(20)#20 <= 1
 0 <= x(21)#21 <= 1
 0 <= x(22)#22 <= 1
 0 <= x(23)#23 <= 1
 0 <= x(24)#24 <= 1
 0 <= x(25)#25 <= 1
 0 <= x(26)#26 <= 1
 0 <= x(27)#27 <= 1
 0 <= x(28)#28 <= 1
 0 <= x(29)#29 <= 1
 0 <= x(30)#30 <= 1
 0 <= x(31)#31 <= 1
 0 <= x(32)#32 <= 1
 0 <= x(33)#33 <= 1
 0 <= x(34)#34 <= 1
 0 <= x(35)#35 <= 1
 0 <= x(36)#36 <= 1
 0 <= x(37)#37 <= 1
 0 <= x(38)#38 <= 1
 0 <= x(39)#39 <= 1
 0 <= x(40)#40 <= 1
 0 <= x(41)#41 <= 1
 0 <= x(42)#42 <= 1
 0 <= x(43)#43 <= 1
 0 <= x(44)#44 <= 1
 0 <= x(45)#45 <= 1
 0 <= x(46)#46 <= 1
 0 <= x(47)#47 <= 1
 0 <= x(48)#48 <= 1
 0 <= x(49)#49 <= 1
 0 <= x(50)#50 <= 1
 0 <= x(51)#51 <= 1
 0 <= x(52)#52 <= 1
 0 <= x(53)#53 <= 1
 0 <= x(54)#54 <= 1
 0 <= x(55)#55 <= 1
 0 <= x(56)#56 <= 1
 0 <= x(57)#57 <= 1
 0 <= x(58)#58 <= 1
 0 <= x(59)#59 <= 1
 0 <= x(60)#60 <= 1
 0 <= x(61)#61 <= 1
 0 <= x(62)#62 <= 1
 0 <= x(63)#63 <= 1
 0 <= x(64)#64 <= 1
 0 <= x(65)#65 <= 1
 0 <= x(66)#66 <= 1
 0 <= x(67)#67 <= 1
 0 <= x(68)#68 <= 1
 0 <= x(69)#69 <= 1
 0 <= x(70)#70 <= 1
 0 <= x(71)#71 <= 1
 0 <= x(72)#72 <= 1
 0 <= x(73)#73 <= 1
 0 <= x(74)#74 <= 1
 0 <= x(75)#75 <= 1
 0 <= x(76)#76 <= 1
 0 <= x(77)#77 <= 1
 0 <= x(78)#78 <= 1
 0 <= x(79)#79 <= 1
 0 <= x(80)#80 <= 1
 0 <= x(81)#81 <= 1
 0 <= x(82)#82 <= 1
 0 <= x(83)#83 <= 1
 0 <= x(84)#84 <= 1
 0 <= x(85)#85 <= 1
 0 <= x(86)#86 <= 1
 0 <= x(87)#87 <= 1
 0 <= x(88)#88 <= 1
 0 <= x(89)#89 <= 1
 0 <= x(90)#90 <= 1
 0 <= x(91)#91 <= 1
 0 <= x(92)#92 <= 1
 0 <= x(93)#93 <= 1
 0 <= x(94)#94 <= 1
 0 <= x(95)#95 <= 1
 0 <= x(96)#96 <= 1
 0 <= x(97)#97 <= 1
 0 <= x(98)#98 <= 1
 0 <= x(99)#99 <= 1
 0 <= x(100)#100 <= 1
 0 <= x(101)#101 <= 1
 0 <= x(102)#102 <= 1
 0 <= x(103)#103 <= 1
 0 <= x(104)#104 <= 1
 0 <= x(105)#105 <= 1
 0 <= x(106)#106 <= 1
 0 <= x(107)#107 <= 1
 0 <= x(108)#108 <= 1
 0 <= x(109)#109 <= 1
 0 <= x(110)#110 <= 1
 0 <= x(111)#111 <= 1
 0 <= x(112)#112 <= 1
 0 <= x(113)#113 <= 1
 0 <= x(114)#114 <= 1
 0 <= x(115)#115 <= 1
 0 <= x(116)#116 <= 1
 0 <= x(117)#117 <= 1
 0 <= x(118)#118 <= 1
 0 <= x(119)#119 <= 1
 0 <= x(120)#120 <= 1
 0 <= x(121)#121 <= 1
 0 <= x(122)#122 <= 1
 0 <= x(123)#123 <= 1
 0 <= x(124)#124 <= 1
 0 <= x(125)#125 <= 1
 0 <= x(126)#126 <= 1
 0 <= x(127)#127 <= 1
 0 <= x(128)#128 <= 1
 0 <= x(129)#129 <= 1
 0 <= x(130)#130 <= 1
 0 <= x(131)#131 <= 1
 0 <= x(132)#132 <= 1
 0 <= x(133)#133 <= 1
 0 <= x(134)#134 <= 1
 0 <= x(135)#135 <= 1
 0 <= x(136)#136 <= 1
 0 <= x(137)#137 <= 1
 0 <= x(138)#138 <= 1
 0 <= x(139)#139 <= 1
 0 <= x(140)#140 <= 1
 0 <= x(141)#141 <= 1
 0 <= x(142)#142 <= 1
 0 <= x(143)#143 <= 1
 0 <= x(144)#144 <= 1
 0 <= x(145)#145 <= 1
 0 <= x(146)#146 <= 1
 0 <= x(147)#147 <= 1
 0 <= x(148)#148 <= 1
 0 <= x(149)#149 <= 1
 0 <= x(150)#150 <= 1
 0 <= x(151)#151 <= 1
 0 <= x(152)#152 <= 1
 0 <= x(153)#153 <= 1
 0 <= x(154)#154 <= 1
 0 <= x(155)#155 <= 1
 0 <= x(156)#156 <= 1
 0 <= x(157)#157 <= 1
 0 <= x(158)#158 <= 1
 0 <= x(159)#159 <= 1
 0 <= x(160)#160 <= 1
 0 <= x(161)#161 <= 1
 0 <= x(162)#162 <= 1
 0 <= x(163)#163 <= 1
 0 <= x(164)#164 <= 1
 0 <= x(165)#165 <= 1
 0 <= x(166)#166 <= 1
 0 <= x(167)#167 <= 1
 0 <= x(168)#168 <= 1
 0 <= x(169)#169 <= 1
 0 <= x(170)#170 <= 1
 0 <= x(171)#171 <= 1
 0 <= x(172)#172 <= 1
 0 <= x(173)#173 <= 1
 0 <= x(174)#174 <= 1
 0 <= x(175)#175 <= 1
 0 <= x(176)#176 <= 1
 0 <= x(177)#177 <= 1
 0 <= x(178)#178 <= 1
 0 <= x(179)#179 <= 1
 0 <= x(180)#180 <= 1
 0 <= x(181)#181 <= 1
 0 <= x(182)#182 <= 1
 0 <= x(183)#183 <= 1
 0 <= x(184)#184 <= 1
 0 <= x(185)#185 <= 1
 0 <= x(186)#186 <= 1
 0 <= x(187)#187 <= 1
 0 <= x(188)#188 <= 1
 0 <= x(189)#189 <= 1
 0 <= x(190)#190 <= 1
 0 <= x(191)#191 <= 1
 0 <= x(192)#192 <= 1
 0 <= x(193)#193 <= 1
 0 <= x(194)#194 <= 1
 0 <= x(195)#195 <= 1
 0 <= x(196)#196 <= 1
 0 <= x(197)#197 <= 1
 0 <= x(198)#198 <= 1
 0 <= x(199)#199 <= 1
 0 <= x(200)#200 <= 1
 0 <= x(201)#201 <= 1
 0 <= x(202)#202 <= 1
 0 <= x(203)#203 <= 1
 0 <= x(204)#204 <= 1
 0 <= x(205)#205 <= 1
 0 <= x(206)#206 <= 1
 0 <= x(207)#207 <= 1
 0 <= x(208)#208 <= 1
 0 <= x(209)#209 <= 1
 0 <= x(210)#210 <= 1
 0 <= x(211)#211 <= 1
 0 <= x(212)#212 <= 1
 0 <= x(213)#213 <= 1
 0 <= x(214)#214 <= 1
 0 <= x(215)#215 <= 1
 0 <= x(216)#216 <= 1
 0 <= x(217)#217 <= 1
 0 <= x(218)#218 <= 1
 0 <= x(219)#219 <= 1
 0 <= x(220)#220 <= 1
 0 <= x(221)#221 <= 1
 0 <= x(222)#222 <= 1
 0 <= x(223)#223 <= 1
 0 <= x(224)#224 <= 1
 0 <= x(225)#225 <= 1
 0 <= x(226)#226 <= 1
 0 <= x(227)#227 <= 1
 0 <= x(228)#228 <= 1
 0 <= x(229)#229 <= 1
 0 <= x(230)#230 <= 1
 0 <= x(231)#231 <= 1
 0 <= x(232)#232 <= 1
 0 <= x(233)#233 <= 1
 0 <= x(234)#234 <= 1
 0 <= x(235)#235 <= 1
 0 <= x(236)#236 <= 1
 0 <= x(237)#237 <= 1
 0 <= x(238)#238 <= 1
 0 <= x(239)#239 <= 1
 0 <= x(240)#240 <= 1
 0 <= x(241)#241 <= 1
 0 <= x(242)#242 <= 1
 0 <= x(243)#243 <= 1
 0 <= x(244)#244 <= 1
 0 <= x(245)#245 <= 1
 0 <= x(246)#246 <= 1
 0 <= x(247)#247 <= 1
 0 <= x(248)#248 <= 1
 0 <= x(249)#249 <= 1
Generals
 x(0)#0  x(1)#1  x(2)#2  x(3)#3  x(4)#4  x(5)#5  x(6)#6  x(7)#7  x(8)#8 
 x(9)#9  x(10)#10  x(11)#11  x(12)#12  x(13)#13  x(14)#14  x(15)#15  x(16)#16 
 x(17)#17  x(18)#18  x(19)#19  x(20)#20  x(21)#21  x(22)#22  x(23)#23 
 x(24)#24  x(25)#25  x(26)#26  x(27)#27  x(28)#28  x(29)#29  x(30)#30 
 x(31)#31  x(32)#32  x(33)#33  x(34)#34  x(35)#35  x(36)#36  x(37)#37 
 x(38)#38  x(39)#39  x(40)#40  x(41)#41  x(42)#42  x(43)#43  x(44)#44 
 x(45)#45  x(46)#46  x(47)#47  x(48)#48  x(49)#49  x(50)#50  x(51)#51 
 x(52)#52  x(53)#53  x(54)#54  x(55)#55  x(56)#56  x(57)#57  x(58)#58 
 x(59)#59  x(60)#60  x(61)#61  x(62)#62  x(63)#63  x(64)#64  x(65)#65 
 x(66)#66  x(67)#67  x(68)#68  x(69)#69  x(70)#70  x(71)#71  x(72)#72 
 x(73)#73  x(74)#74  x(75)#75  x(76)#76  x(77)#77  x(78)#78  x(79)#79 
 x(80)#80  x(81)#81  x(82)#82  x(83)#83  x(84)#84  x(85)#85  x(86)#86 
 x(87)#87  x(88)#88  x(89)#89  x(90)#90  x(91)#91  x(92)#92  x(93)#93 
 x(94)#94  x(95)#95  x(96)#96  x(97)#97  x(98)#98  x(99)#99  x(100)#100 
 x(101)#101  x(102)#102  x(103)#103  x(104)#104  x(105)#105  x(106)#106 
 x(107)#107  x(108)#108  x(109)#109  x(110)#110  x(111)#111  x(112)#112 
 x(113)#113  x(114)#114  x(115)#115  x(116)#116  x(117)#117  x(118)#118 
 x(119)#119  x(120)#120  x(121)#121  x(122)#122  x(123)#123  x(124)#124 
 x(125)#125  x(126)#126  x(127)#127  x(128)#128  x(129)#129  x(130)#130 
 x(131)#131  x(132)#132  x(133)#133  x(134)#134  x(135)#135  x(136)#136 
 x(137)#137  x(138)#138  x(139)#139  x(140)#140  x(141)#141  x(142)#142 
 x(143)#143  x(144)#144  x(145)#145  x(146)#146  x(147)#147  x(148)#148 
 x(149)#149  x(150)#150  x(151)#151  x(152)#152  x(153)#153  x(154)#154 
 x(155)#155  x(156)#156  x(157)#157  x(158)#158  x(159)#159  x(160)#160 
 x(161)#161  x(162)#162  x(163)#163  x(164)#164  x(165)#165  x(166)#166 
 x(167)#167  x(168)#168  x(169)#169  x(170)#170  x(171)#171  x(172)#172 
 x(173)#173  x(174)#174  x(175)#175  x(176)#176  x(177)#177  x(178)#178 
 x(179)#179  x(180)#180  x(181)#181  x(182)#182  x(183)#183  x(184)#184 
 x(185)#185  x(186)#186  x(187)#187  x(188)#188  x(189)#189  x(190)#190 
 x(191)#191  x(192)#192  x(193)#193  x(194)#194  x(195)#195  x(196)#196 
 x(197)#197  x(198)#198  x(199)#199  x(200)#200  x(201)#201  x(202)#202 
 x(203)#203  x(204)#204  x(205)#205  x(206)#206  x(207)#207  x(208)#208 
 x(209)#209  x(210)#210  x(211)#211  x(212)#212  x(213)#213  x(214)#214 
 x(215)#215  x(216)#216  x(217)#217  x(218)#218  x(219)#219  x(220)#220 
 x(221)#221  x(222)#222  x(223)#223  x(224)#224  x(225)#225  x(226)#226 
 x(227)#227  x(228)#228  x(229)#229  x(230)#230  x(231)#231  x(232)#232 
 x(233)#233  x(234)#234  x(235)#235  x(236)#236  x(237)#237  x(238)#238 
 x(239)#239  x(240)#240  x(241)#241  x(242)#242  x(243)#243  x(244)#244 
 x(245)#245  x(246)#246  x(247)#247  x(248)#248  x(249)#249 
End
